20J6M/DAT/20J6MUNL-14.dat
20 6
33.8836 33.8836
7.671 7.671
13.853 13.853
8.1957 8.1957
13.6329 13.6329
39.0798 39.0798
48.742 48.742
25.6298 25.6298
42.8456 42.8456
12.3684 12.3684
4.4205 4.4205
7.8051 7.8051
49.0264 49.0264
36.2408 36.2408
38.898 38.898
31.2636 31.2636
42.2243 42.2243
20.9727 20.9727
20.6886 20.6886
45.2744 45.2744
542.7162