20J6M/SOL/20J6MUNL-14.sol
solution status: optimal solution found
objective value:                              90.4527
x#1#2                                               1 	(obj:0)
x#2#4                                               1 	(obj:0)
x#3#5                                               1 	(obj:0)
x#4#5                                               1 	(obj:0)
x#5#4                                               1 	(obj:0)
x#6#2                                               1 	(obj:0)
x#7#3                               0.150090271223996 	(obj:0)
x#7#6                               0.849909728776004 	(obj:0)
x#8#1                               0.887104074163669 	(obj:0)
x#8#4                               0.112895925836331 	(obj:0)
x#9#3                               0.883698676176784 	(obj:0)
x#9#5                               0.116301323823216 	(obj:0)
x#10#4                                              1 	(obj:0)
x#11#4                                              1 	(obj:0)
x#12#4                                              1 	(obj:0)
x#13#6                                              1 	(obj:0)
x#14#1                                              1 	(obj:0)
x#15#1                               0.80918299141344 	(obj:0)
x#15#2                               0.19081700858656 	(obj:0)
x#16#5                                              1 	(obj:0)
x#17#2                              0.238414846427294 	(obj:0)
x#17#5                              0.761585153572706 	(obj:0)
x#18#4                                              1 	(obj:0)
x#19#4                                              1 	(obj:0)
x#20#3                                              1 	(obj:0)
z                                             90.4527 	(obj:1)
